Route 1: 0 41 33 71 38 66 23 0
Route 2: 0 5 27 89 28 58 76 7 82 14 48 83 94 0
Route 3: 0 63 42 65 61 93 90 98 87 6 16 74 0
Route 4: 0 92 100 46 75 3 85 19 24 10 91 0
Route 5: 0 69 77 9 37 60 73 43 0
Route 6: 0 55 96 12 20 1 99 25 0
Route 7: 0 31 22 70 21 13 36 15 80 32 86 0
Route 8: 0 84 54 47 34 56 67 29 78 0
Route 9: 0 17 4 51 44 59 68 95 45 79 97 40 62 0
Route 10: 0 8 88 39 11 35 81 30 49 57 64 53 0
Route 11: 0 52 2 18 72 26 50 0
